data;

param num_top:=3;

#nodes and edges of the physical network
param n := 10;

set E := (1,2) (1,3) (1,7) (2,4) (2,7) (3,5) (4,8) (5,6) (5,7) (6,7) (6,9) (7,8) (7,9) (8,10) (9,10) ;

#nodes and edges of the virtual networks
set Nl[1] := 1 7 8 9 ;
set Nl[2] := 5 7 2 4 ;
set Nl[3] := 5 10 9 3 ;

set El[1] := (1,7) (7,8) (8,9) (1,9) ;
set El[2] := (5,7) (2,7) (2,4) (4,5) ;
set El[3] := (5,10) (9,10) (3,9) (3,5) ;
